(declare-fun temp682_1 () (_ BitVec 64))
(declare-fun temp682_2 () (_ BitVec 64))
(declare-fun var87778 () (_ BitVec 64))
(declare-fun k!0 () Bool)
(declare-fun ARGNAME_input_NAMEEND_DIM () (_ BitVec 64))
(declare-fun temp682_3 () (_ BitVec 64))
(declare-fun var3216467 () (_ BitVec 64))
(declare-fun temp682_4 () (_ BitVec 64))
(declare-fun temp682_5 () (_ BitVec 64))
(declare-fun var3814205 () (_ BitVec 64))
(declare-fun temp682_6 () (_ BitVec 64))
(declare-fun var3879741 () (_ BitVec 64))
(declare-fun temp682_7 () (_ BitVec 64))
(declare-fun var4535101 () (_ BitVec 64))
(declare-fun temp682_8 () (_ BitVec 64))
(declare-fun var4600637 () (_ BitVec 64))
(declare-fun temp682_9 () (_ BitVec 64))
(declare-fun ARGNAME_keepdim_NAMEEND () (_ BitVec 64))
(declare-fun temp682_10 () (_ BitVec 64))
(declare-fun var4666173 () (_ BitVec 64))
(declare-fun temp682_11 () (_ BitVec 64))
(declare-fun var4731709 () (_ BitVec 64))
(declare-fun temp682_12 () (_ BitVec 64))
(declare-fun var4797245 () (_ BitVec 64))
(declare-fun temp682_13 () (_ BitVec 64))
(declare-fun var4928317 () (_ BitVec 64))
(declare-fun temp682_15 () (_ BitVec 64))
(declare-fun temp682_14 () (_ BitVec 64))
(declare-fun temp682_16 () (_ BitVec 64))
(declare-fun var4993853 () (_ BitVec 64))
(assert (= temp682_1 #x0000000000000002))
(assert (= var87778
   (ite (= ARGNAME_input_NAMEEND_DIM temp682_1)
        #x0000000000000001
        #x0000000000000000)))
(assert (= temp682_2 #x0000000000000001))
(assert (= var87778 temp682_2))
(assert (= temp682_3 #x0000000000000002))
(assert (= var3216467
   (ite (bvslt ARGNAME_input_NAMEEND_DIM temp682_3)
        #x0000000000000001
        #x0000000000000000)))
(assert (= temp682_4 #x0000000000000000))
(assert (= var3216467 temp682_4))
(assert (= temp682_5 #x0000000000000000))
(assert (= var3814205 temp682_5))
(assert (= temp682_6 #x0000000000000001))
(assert (= var3879741 temp682_6))
(assert (= temp682_7 #x0000000000000000))
(assert (= var4535101 temp682_7))
(assert (= temp682_8 #x0000000000000001))
(assert (= var4600637 temp682_8))
(assert (= temp682_9 #x0000000000000000))
(assert (= ARGNAME_keepdim_NAMEEND temp682_9))
(assert (= temp682_10 #x0000000000000000))
(assert (= var4666173 temp682_10))
(assert (= temp682_11 #x0000000000000001))
(assert (= var4731709 temp682_11))
(assert (= temp682_12 #x0000000000000001))
(assert (= var4797245 temp682_12))
(assert (= temp682_13 #x0000000000000000))
(assert (= var4928317 temp682_13))
(assert (= temp682_15 #x0000000000000001))
(assert (= temp682_14 temp682_15))
(assert (= temp682_16 #x0000000000000001))
(assert (= var4993853 temp682_16))
(model-add temp682_1 () (_ BitVec 64) #x0000000000000002)
(model-add temp682_2 () (_ BitVec 64) #x0000000000000001)
(model-add var87778 () (_ BitVec 64) #x0000000000000001)
(model-del k!0)
(model-add ARGNAME_input_NAMEEND_DIM
           ()
           (_ BitVec 64)
           (ite k!0 #x0000000000000002 (bvnot #x0000000000000002)))




